Route #1: 2 34 48 40 5
Route #2: 32 28 29 19 9
Route #3: 4 18 26 47 25 7
Route #4: 8 17 42 21 1
Route #5: 41 45 39 35 10
Route #6: 15 3 13 22 23 46 38
Route #7: 37 12 33 49 24 16 11 43 36
Route #8: 27 20 30 14 31 6 44
Cost 1359